\ Test8 WDP
Minimize
 obj: 23.9209 x_gw0_r0 + 12.6678 x_gw0_r1 + 200.569 x_gw0_r2 + 251.632 x_gw0_r3 + 15.5587 x_gw0_r4 + 14.6608 x_gw0_r5 + 12.2128 x_gw0_r6 + 183.239 x_gw0_r7 + 36.8709 x_gw0_r8 + 210.341 x_gw0_r9 + 258.034 x_gw0_r10 + 39.0313 x_gw0_r11 + 38.7656 x_gw0_r12 + 35.5188 x_gw0_r13 + 36.8902 x_gw0_r14 + 190.762 x_gw0_r15 + 202.886 x_gw0_r16 + 255.594 x_gw0_r17 + 22.6374 x_gw0_r18 + 24.1126 x_gw0_r19 + 23.0022 x_gw0_r20 + 19.3747 x_gw0_r21 + 188.283 x_gw0_r22 + 259.416 x_gw0_r23 + 217.158 x_gw0_r24 + 214.346 x_gw0_r25 + 201.666 x_gw0_r26 + 255.62 x_gw0_r27 + 23.9517 x_gw0_r28 + 22.6876 x_gw0_r29 + 21.1329 x_gw0_r30 + 187.577 x_gw0_r31 + 202.648 x_gw0_r32 + 256.792 x_gw0_r33 + 24.2852 x_gw0_r34 + 23.9483 x_gw0_r35 + 186.966 x_gw0_r36 + 202.049 x_gw0_r37 + 256.585 x_gw0_r38 + 189.334 x_gw0_r39 + 257.704 x_gw0_r40 + 26.2384 x_gw1_r0 + 12.7506 x_gw1_r1 + 197.448 x_gw1_r2 + 254.387 x_gw1_r3 + 15.3474 x_gw1_r4 + 14.7795 x_gw1_r5 + 18.4851 x_gw1_r6 + 185.707 x_gw1_r7 + 36.9183 x_gw1_r8 + 212.25 x_gw1_r9 + 259.817 x_gw1_r10 + 38.7856 x_gw1_r11 + 41.0597 x_gw1_r12 + 35.6064 x_gw1_r13 + 43.2396 x_gw1_r14 + 43.1264 x_gw1_r15 + 192.701 x_gw1_r16 + 202.544 x_gw1_r17 + 255.126 x_gw1_r18 + 22.7032 x_gw1_r19 + 23.8861 x_gw1_r20 + 23.0675 x_gw1_r21 + 25.6335 x_gw1_r22 + 187.971 x_gw1_r23 + 256.169 x_gw1_r24 + 214.012 x_gw1_r25 + 216.77 x_gw1_r26 + 201.038 x_gw1_r27 + 254.866 x_gw1_r28 + 23.7253 x_gw1_r29 + 22.7917 x_gw1_r30 + 28.6237 x_gw1_r31 + 25.4033 x_gw1_r32 + 186.979 x_gw1_r33 + 202.348 x_gw1_r34 + 256.366 x_gw1_r35 + 30.1077 x_gw1_r36 + 29.9795 x_gw1_r37 + 186.695 x_gw1_r38 + 204.972 x_gw1_r39 + 259.381 x_gw1_r40 + 192.287 x_gw1_r41 + 260.016 x_gw1_r42 + 8.73408 x_od0_r0 + 6.56961 x_od1_r0 + 6.1648 x_od1_r1 + 8 z_o4 + 8 z_o7 + 20.6668 z_o2 + 8 z_o1 + 8.82195 z_o5 + 13.8854 z_o6 + 15.8381 z_o3 + 17.6417 z_o0
Subject To
 cov_o0: x_gw0_r0 + x_gw0_r8 + x_gw0_r9 + x_gw0_r10 + x_gw0_r11 + x_gw0_r12 + x_gw0_r13 + x_gw0_r14 + x_gw0_r15 + x_gw1_r0 + x_gw1_r8 + x_gw1_r9 + x_gw1_r10 + x_gw1_r11 + x_gw1_r12 + x_gw1_r13 + x_gw1_r14 + x_gw1_r15 + x_gw1_r16 + z_o0 = 1
 cov_o1: x_gw0_r1 + x_gw0_r8 + x_gw0_r16 + x_gw0_r17 + x_gw0_r18 + x_gw0_r19 + x_gw0_r20 + x_gw0_r21 + x_gw0_r22 + x_gw1_r1 + x_gw1_r8 + x_gw1_r17 + x_gw1_r18 + x_gw1_r19 + x_gw1_r20 + x_gw1_r21 + x_gw1_r22 + x_gw1_r23 + x_od0_r0 + x_od1_r0 + z_o1 = 1
 cov_o2: x_gw0_r2 + x_gw0_r9 + x_gw0_r16 + x_gw0_r23 + x_gw0_r24 + x_gw0_r25 + x_gw0_r26 + x_gw0_r32 + x_gw0_r37 + x_gw1_r2 + x_gw1_r9 + x_gw1_r17 + x_gw1_r24 + x_gw1_r25 + x_gw1_r26 + x_gw1_r27 + x_gw1_r34 + x_gw1_r39 + z_o2 = 1
 cov_o3: x_gw0_r3 + x_gw0_r10 + x_gw0_r17 + x_gw0_r23 + x_gw0_r27 + x_gw0_r33 + x_gw0_r38 + x_gw0_r40 + x_gw1_r3 + x_gw1_r10 + x_gw1_r18 + x_gw1_r24 + x_gw1_r28 + x_gw1_r35 + x_gw1_r40 + x_gw1_r42 + z_o3 = 1
 cov_o4: x_gw0_r4 + x_gw0_r11 + x_gw0_r12 + x_gw0_r18 + x_gw0_r19 + x_gw0_r26 + x_gw0_r27 + x_gw0_r28 + x_gw0_r29 + x_gw0_r30 + x_gw0_r31 + x_gw1_r4 + x_gw1_r11 + x_gw1_r12 + x_gw1_r19 + x_gw1_r20 + x_gw1_r27 + x_gw1_r28 + x_gw1_r29 + x_gw1_r30 + x_gw1_r31 + x_gw1_r32 + x_gw1_r33 + z_o4 = 1
 cov_o5: x_gw0_r5 + x_gw0_r13 + x_gw0_r20 + x_gw0_r28 + x_gw0_r29 + x_gw0_r32 + x_gw0_r33 + x_gw0_r34 + x_gw0_r35 + x_gw0_r36 + x_gw1_r5 + x_gw1_r13 + x_gw1_r21 + x_gw1_r29 + x_gw1_r30 + x_gw1_r34 + x_gw1_r35 + x_gw1_r36 + x_gw1_r37 + x_gw1_r38 + x_od1_r1 + z_o5 = 1
 cov_o6: x_gw0_r6 + x_gw0_r14 + x_gw0_r21 + x_gw0_r30 + x_gw0_r34 + x_gw0_r35 + x_gw0_r37 + x_gw0_r38 + x_gw0_r39 + x_gw1_r6 + x_gw1_r14 + x_gw1_r15 + x_gw1_r22 + x_gw1_r31 + x_gw1_r32 + x_gw1_r36 + x_gw1_r37 + x_gw1_r39 + x_gw1_r40 + x_gw1_r41 + z_o6 = 1
 cov_o7: x_gw0_r7 + x_gw0_r15 + x_gw0_r22 + x_gw0_r24 + x_gw0_r25 + x_gw0_r31 + x_gw0_r36 + x_gw0_r39 + x_gw0_r40 + x_gw1_r7 + x_gw1_r16 + x_gw1_r23 + x_gw1_r25 + x_gw1_r26 + x_gw1_r33 + x_gw1_r38 + x_gw1_r41 + x_gw1_r42 + z_o7 = 1
 one_gw0: x_gw0_r0 + x_gw0_r1 + x_gw0_r2 + x_gw0_r3 + x_gw0_r4 + x_gw0_r5 + x_gw0_r6 + x_gw0_r7 + x_gw0_r8 + x_gw0_r9 + x_gw0_r10 + x_gw0_r11 + x_gw0_r12 + x_gw0_r13 + x_gw0_r14 + x_gw0_r15 + x_gw0_r16 + x_gw0_r17 + x_gw0_r18 + x_gw0_r19 + x_gw0_r20 + x_gw0_r21 + x_gw0_r22 + x_gw0_r23 + x_gw0_r24 + x_gw0_r25 + x_gw0_r26 + x_gw0_r27 + x_gw0_r28 + x_gw0_r29 + x_gw0_r30 + x_gw0_r31 + x_gw0_r32 + x_gw0_r33 + x_gw0_r34 + x_gw0_r35 + x_gw0_r36 + x_gw0_r37 + x_gw0_r38 + x_gw0_r39 + x_gw0_r40 <= 1
 one_gw1: x_gw1_r0 + x_gw1_r1 + x_gw1_r2 + x_gw1_r3 + x_gw1_r4 + x_gw1_r5 + x_gw1_r6 + x_gw1_r7 + x_gw1_r8 + x_gw1_r9 + x_gw1_r10 + x_gw1_r11 + x_gw1_r12 + x_gw1_r13 + x_gw1_r14 + x_gw1_r15 + x_gw1_r16 + x_gw1_r17 + x_gw1_r18 + x_gw1_r19 + x_gw1_r20 + x_gw1_r21 + x_gw1_r22 + x_gw1_r23 + x_gw1_r24 + x_gw1_r25 + x_gw1_r26 + x_gw1_r27 + x_gw1_r28 + x_gw1_r29 + x_gw1_r30 + x_gw1_r31 + x_gw1_r32 + x_gw1_r33 + x_gw1_r34 + x_gw1_r35 + x_gw1_r36 + x_gw1_r37 + x_gw1_r38 + x_gw1_r39 + x_gw1_r40 + x_gw1_r41 + x_gw1_r42 <= 1
 one_od0: x_od0_r0 <= 1
 one_od1: x_od1_r0 + x_od1_r1 <= 1
Binaries
 x_gw0_r0 x_gw0_r1 x_gw0_r2 x_gw0_r3 x_gw0_r4 x_gw0_r5 x_gw0_r6 x_gw0_r7 x_gw0_r8 x_gw0_r9 x_gw0_r10 x_gw0_r11 x_gw0_r12 x_gw0_r13 x_gw0_r14 x_gw0_r15 x_gw0_r16 x_gw0_r17 x_gw0_r18 x_gw0_r19 x_gw0_r20 x_gw0_r21 x_gw0_r22 x_gw0_r23 x_gw0_r24 x_gw0_r25 x_gw0_r26 x_gw0_r27 x_gw0_r28 x_gw0_r29 x_gw0_r30 x_gw0_r31 x_gw0_r32 x_gw0_r33 x_gw0_r34 x_gw0_r35 x_gw0_r36 x_gw0_r37 x_gw0_r38 x_gw0_r39 x_gw0_r40 x_gw1_r0 x_gw1_r1 x_gw1_r2 x_gw1_r3 x_gw1_r4 x_gw1_r5 x_gw1_r6 x_gw1_r7 x_gw1_r8 x_gw1_r9 x_gw1_r10 x_gw1_r11 x_gw1_r12 x_gw1_r13 x_gw1_r14 x_gw1_r15 x_gw1_r16 x_gw1_r17 x_gw1_r18 x_gw1_r19 x_gw1_r20 x_gw1_r21 x_gw1_r22 x_gw1_r23 x_gw1_r24 x_gw1_r25 x_gw1_r26 x_gw1_r27 x_gw1_r28 x_gw1_r29 x_gw1_r30 x_gw1_r31 x_gw1_r32 x_gw1_r33 x_gw1_r34 x_gw1_r35 x_gw1_r36 x_gw1_r37 x_gw1_r38 x_gw1_r39 x_gw1_r40 x_gw1_r41 x_gw1_r42 x_od0_r0 x_od1_r0 x_od1_r1 z_o4 z_o7 z_o2 z_o1 z_o5 z_o6 z_o3 z_o0
End